language ESSENCE' 1.0
$ minion Nodes: 1
$ minion TotalTime: 0.002691
$ Savile Row TotalTime: 1.181
letting s_SetExplicitVarSizeWithMarker_tuple1 be 3
letting s_SetExplicitVarSizeWithMarker_tuple2_tuple2_SetOccurrence be [[false, true, false;int(1..3)], 
[false, false, true;int(1..3)], 
[true, false, false;int(1..3)];int(1..3)]
letting s_SetExplicitVarSizeWithMarker_tuple2_tuple1 be [1, 2, 4;int(1..3)]
